p cnf 56 70

c --Express starting state
-1 0
-2 0
-3 0
-4 0
5 0
6 0
-7 0


c -- This is setting as and instead of or for starting state clauses

c -- Equivalence (no change between states)
7 -3 0
-7 3 0

c -- XOR (bit change)
-8 -4 0
8 4 0

c -- Transition from 0 -> 1
-8 -1 0
8 1 0

-9 -2 0
9 2 0

10 -3 0
-10 3 0

11 -4 0
-11 4 0

-12 -5 0
12 5 0

13 -6 0
-13 6 0

14 -7 0
-14 7 0

c -- Transition from 1 -> 2
-15 8 0
15 -8 0

-16 9 0
16 -9 0

-17 10 0
17 -10 0

-18 11 0
18 -11 0

-19 12 0
19 -12 0

-20 -13 0
20 13 0

-21 14 0
21 -14 0

c -- Transition from 2 -> 3
-22 15 0
22 -15 0

-23 -16 0
23 16 0

-24 -17 0
24 17 0

-25 18 0
25 -18 0

-26 19 0
26 -19 0

-27 20 0
27 -20 0

-28 21 0
28 -21 0

c -- Transition from 3 -> 4
-29 22 0
29 -22 0

-30 23 0
30 -23 0

-31 24 0
31 -24 0

-32 25 0
32 -25 0

-33 26 0
33 -26 0

-34 27 0
34 -27 0

-35 -28 0
35 28 0

c -- Transition from 4 -> 5
-36 -29 0
36 29 0

-37 30 0
37 -20 0

-38 -31 0
38 31 0

-39 -32 0
39 32 0

-40 33 0
40 -33 0

-41 34 0
41 -34 0

-42 35 0
42 -35 0

c -- Transition from 5 -> 6
-43 36 0
43 -36 0

-44 37 0
44 -37 0

-45 38 0
45 -38 0

-46 -39 0
46 39 0

-47 -40 0
47 40 0

-48 41 0
48 -41 0

-49 42 0
49 -42 0

c -- Transition from 6 -> 0
-1 43 0
1 -43 0

-2 44 0
2 -44 0

-3 45 0
3 -45 0

-4 46 0
4 -46 0

-5 47 0
5 -47 0

-6 -48 0
6 48 0

-7 -49 0
7 49 0

c -- Transition from 6 -> 7
-50 43 0
50 -43 0

-51 44 0
51 -44 0

-52 45 0
52 -45 0

-53 46 0
53 -46 0

-54 47 0
54 -47 0

-55 48 0
55 -48 0

-56 -48 0
56 48 0

c -- Transition from 7 -> 3
-22 -50 0
22 50 0

-23 51 0
23 -51 0

-24 -52 0
24 52 0

-25 53 0
25 -53 0

-26 -54 0
26 54 0

-27 55 0
27 -55 0

-28 56 0
28 -55 0